
Gurobi 10.0.2 (linux64, gurobi_cl) logging started Wed Jun 28 17:42:50 2023

Set parameter LogFile to value "gurobi.log"
Restricted license - for non-production use only - expires 2024-10-28

Gurobi 10.0.2 (linux64, gurobi_cl) logging started Wed Jun 28 18:16:45 2023

Set parameter LogFile to value "gurobi.log"
Restricted license - for non-production use only - expires 2024-10-28

Gurobi 10.0.2 (linux64, gurobi_cl) logging started Thu Jun 29 16:17:36 2023

Set parameter LogFile to value "gurobi.log"
Restricted license - for non-production use only - expires 2024-10-28

Gurobi 10.0.2 (linux64, gurobi_cl) logging started Thu Jun 29 18:03:34 2023

Set parameter LogFile to value "gurobi.log"
Restricted license - for non-production use only - expires 2024-10-28

Gurobi 10.0.2 (linux64, gurobi_cl) logging started Thu Jun 29 18:47:59 2023

Set parameter LogFile to value "gurobi.log"
Restricted license - for non-production use only - expires 2024-10-28

Gurobi 10.0.2 (linux64, gurobi_cl) logging started Fri Jun 30 13:18:44 2023

Set parameter LogFile to value "gurobi.log"
Restricted license - for non-production use only - expires 2024-10-28

Gurobi 10.0.2 (linux64, gurobi_cl) logging started Fri Jun 30 13:46:31 2023

Set parameter LogFile to value "gurobi.log"
Restricted license - for non-production use only - expires 2024-10-28
